proyfinal/src/viki/013/experimentInOfficeAgust.take6.output/67534318-6cb3-49dc-898d-2fd7d732496e.als.out
Reading from standard input... Use '--help' for help.
============================[ Problem Statistics ]=============================
|                                                                             |
|  Number of variables:         87638                                         |
|  Number of clauses:          161767                                         |
|  Parse time:                   0.04 s                                       |
|                                                                             |
============================[ Search Statistics ]==============================
| Conflicts |          ORIGINAL         |          LEARNT          | Progress |
|           |    Vars  Clauses Literals |    Limit  Clauses Lit/Cl |          |
===============================================================================
|       100 |   62659   106158   265441 |    38924      100      6 | 28.502 % |
|       250 |   62508   106036   265119 |    42817      236     18 | 28.675 % |
|       475 |   62508   106036   265119 |    47098      461     68 | 28.675 % |
|       812 |   62481   105456   263585 |    51808      761     79 | 28.706 % |
|      1318 |   62463   105382   263414 |    56989     1266     82 | 28.726 % |
|      2077 |   62463   105382   263414 |    62688     2025     86 | 28.726 % |
===============================================================================
restarts              : 15
conflicts             : 3057           (7583 /sec)
decisions             : 13264          (0.00 % random) (32903 /sec)
propagations          : 4269707        (10591469 /sec)
conflict literals     : 215752         (52.74 % deleted)
Memory used           : 24.91 MB
CPU time              : 0.403127 s

UNSATISFIABLE
